Name: NAD-20.0,50.0,100.0
Id: HMDB00902
MW: 663.109121804
FORMULA: C21H27N7O14P2
CATEGORY: None
SMILE: NC(=O)c1ccc[n+](C2OC(COP(=O)([O-])OP(=O)(O)OCC3OC(n4cnc5c(N)ncnc54)C(O)C3O)C(O)C2O)c1
Ionization: negative
ion mode: negative
CE: 200
LOGP: -3.6479
NumPeaks: 22
62.964214325 248 2
78.9593391418 8816 4
92.0254847209 97 3
96.9695861816 821 5
107.036354065 289 3
134.047064209 2205 5
138.980453491 56 2
146.98580424 107 3
150.980529785 56 2
158.925656128 3351 5
174.980461121 539 4
176.936406453 95 3
192.991004944 179 4
211.001739502 130 4
254.946289062 54 2
272.956855774 1175 4
328.045959473 523 4
346.056945801 488 4
408.012435913 427 4
426.022750854 614 4
540.051066081 7137 3
540.052429199 7118 2


Name: L-GLUTAMINE-20.0,50.0,100.0
Id: HMDB00641
MW: 146.06914218
FORMULA: C5H10N2O3
CATEGORY: None
SMILE: NC(=O)CCC(N)C(=O)O
Ionization: negative
ion mode: negative
CE: 200
LOGP: -1.3362
NumPeaks: 32
52.0191116333 51 2
58.0298690796 2961 4
66.0349807739 57 2
67.0301628113 225 4
70.0298519135 140 4
71.0140228271 34 4
71.0251178741 134 4
72.0091705322 254 4
72.0455932617 28 3
72.9931793213 42 3
74.0247955322 1813 4
81.0460205078 33 3
82.0252304077 50 2
82.0298728943 925 4
84.0404510498 61 2
84.0455093384 1891 4
86.0247936249 253 4
97.0407562256 110 4
98.0247980754 117 3
99.0564365387 185 4
101.071949005 548 4
102.056114197 17 3
107.02511851 108 3
109.040693283 768 4
125.035812378 397 3
125.390640259 26 2
127.042938232 42 2
127.051460266 2527 4
128.035438538 1147 4
138.631530762 23 2
142.038706462 34 3
145.062143962 3244 3


Name: HYPOTAURINE-20.0,50.0,100.0
Id: HMDB00965
MW: 109.019749464
FORMULA: C2H7NO2S
CATEGORY: None
SMILE: NCCS(=O)O
Ionization: negative
ion mode: negative
CE: 200
LOGP: -0.8332
NumPeaks: 3
63.9624799093 9645 3
64.9702987671 981 3
108.01247406 671 2


Name: INOSINE 5'-PHOSPHATE-20.0,50.0,100.0
Id: HMDB00175
MW: 348.047100006
FORMULA: C10H13N4O8P
CATEGORY: None
SMILE: O=c1nc[nH]c2c1ncn2C1OC(COP(=O)(O)O)C(O)C1O
Ionization: negative
ion mode: negative
CE: 200
LOGP: -2.1519
NumPeaks: 11
62.964050293 61 3
65.0145721436 355 2
66.0098419189 67 2
78.9590606689 7527 3
92.0253245036 1374 3
96.9695968628 871 3
135.031138102 230 3
150.980484009 113 2
192.991226196 69 2
211.001693726 523 2
347.040802002 6304 2


Name: CITRATE-20.0,50.0,100.0
Id: HMDB00094
MW: 192.027002596
FORMULA: C6H8O7
CATEGORY: None
SMILE: O=C(O)CC(O)(CC(=O)O)C(=O)O
Ionization: negative
ion mode: negative
CE: 200
LOGP: -1.2485
NumPeaks: 23
57.0346002579 2598 4
58.9589700699 96 4
59.0139074326 337 4
67.0189723969 971 4
72.9933039347 27 3
73.0295715332 30 3
83.0139490763 33 3
85.0295581818 1730 4
87.0087833405 2943 4
87.9253025055 377 4
102.948770523 540 4
103.040133158 26 3
103.920129776 48 4
105.93572998 41 4
111.008729935 4779 4
123.94648234 29 3
129.019475301 384 3
130.998474121 40 3
146.939005534 291 3
147.030131022 33 3
154.998906453 36 3
173.009328206 198 3
191.020187378 1634 3


Name: CITRATE-20.0,50.0,100.0
Id: HMDB00094
MW: 192.027002596
FORMULA: C6H8O7
CATEGORY: None
SMILE: O=C(O)CC(O)(CC(=O)O)C(=O)O
Ionization: negative
ion mode: negative
CE: 200
LOGP: -1.2485
NumPeaks: 22
57.0345865885 2419 6
58.9589468638 265 6
59.0138645172 295 6
67.0189628601 509 6
83.0137527466 26 5
85.0295346578 1641 6
87.0087547302 2912 6
87.9252548218 1013 6
102.948786418 703 6
102.997827148 45 5
103.919984182 218 6
105.935714722 175 6
106.943557739 48 5
111.008686066 4798 6
123.94655482 615 6
129.019424438 362 4
130.998524984 31 3
146.938732147 296 4
147.029987335 27 4
154.998645782 40 4
173.008839925 140 3
191.020000458 1087 4


Name: CITRATE-20.0,50.0,100.0
Id: HMDB00094
MW: 192.027002596
FORMULA: C6H8O7
CATEGORY: None
SMILE: O=C(O)CC(O)(CC(=O)O)C(=O)O
Ionization: negative
ion mode: negative
CE: 200
LOGP: -1.2485
NumPeaks: 26
57.0345850405 3297 23
59.0138343464 372 22
59.9852591621 14 9
67.0189613674 1177 23
67.8221041361 12 6
68.8053665161 37 2
69.5959014893 39 2
83.0137751653 47 13
85.0295320594 1748 23
87.0087479301 3150 23
92.4431991577 41 2
101.024281979 20 16
102.948895264 9 15
103.040128371 29 17
108.914337158 38 2
111.00138855 77 2
111.008674622 5432 23
126.157676697 37 2
129.019415463 450 17
130.998455048 46 16
147.030051736 42 17
154.998764038 46 17
173.009250641 173 16
190.186141968 36 2
191.020112879 1360 17
209.673370361 36 2


Name: L-THREONINE-20.0,50.0,100.0
Id: HMDB00167
MW: 119.058243148
FORMULA: C4H9NO3
CATEGORY: None
SMILE: CC(O)C(N)C(=O)O
Ionization: negative
ion mode: negative
CE: 200
LOGP: -1.2209
NumPeaks: 3
72.0091552734 3389 3
74.0247751872 8436 3
118.050979614 1811 2


Name: PURINE-20.0,50.0,100.0
Id: HMDB01366
MW: 120.043596128
FORMULA: C5H4N4
CATEGORY: None
SMILE: c1ncc2[nH]cnc2n1
Ionization: negative
ion mode: negative
CE: 200
LOGP: 0.3529
NumPeaks: 7
64.0066299438 62 6
65.0145670573 1786 6
67.0302454631 515 6
68.0254770915 204 6
90.0099182129 257 6
92.0254681905 1913 6
119.036338806 9786 6


Name: N-ACETYLNEURAMINATE-20.0,50.0,100.0
Id: HMDB00230
MW: 309.105981188
FORMULA: C11H19NO9
CATEGORY: None
SMILE: CC(=O)NC1C(O)CC(O)(C(=O)O)OC1C(O)C(O)CO
Ionization: negative
ion mode: negative
CE: 200
LOGP: -3.8718
NumPeaks: 27
52.0190925598 140 2
55.0188713074 46 2
57.0343933105 37 2
58.0060195923 37 3
58.0298500061 421 3
59.0138956706 1453 3
59.9851913452 34 2
66.0349349976 131 2
71.0138778687 227 3
71.0465774536 46 2
71.0502929688 1140 2
72.0091629028 49 2
72.9930648804 119 2
82.0300013224 277 3
84.0457458496 41 2
87.0087865194 6222 3
89.0243759155 60 2
98.0549468994 43 2
98.0611139933 1098 3
100.040331523 127 3
101.024398804 209 2
119.035064697 409 2
142.051315308 37 2
170.046279907 1567 2
220.083190918 71 2
290.088500977 136 2
308.099243164 907 2