BEGIN IONS
PEPMASS=189.103
CHARGE=1
MSLEVEL=2
SOURCE_INSTRUMENT=Negative-Quattro_QQQ:10eV
FILENAME=hmdb_intermediate.mgf
SEQ=*..*
IONMODE=Negative
ORGANISM=HMDB
NAME=HMDB:HMDB04095-2361 5-Methoxytryptamine M-H
PI=HMDB
DATACOLLECTOR=HMDB
SMILES=COC1=CC2=C(NC=C2CCN)C=C1
INCHI=InChI=1S/C11H14N2O/c1-14-9-2-3-11-10(6-9)8(4-5-12)7-13-11/h2-3,6-7,13H,4-5,12H2,1H3
INCHIAUX=N/A
PUBMED=N/A
SUBMITUSER=mwang87
TAGS=
LIBRARYQUALITY=3
SPECTRUMID=CCMSLIB00000425029
SCANS=1
143.0	7.605
144.0	2.369
173.0	100.0
175.0	3.178
188.0	87.625
190.0	2.304
END IONS
BEGIN IONS
PEPMASS=223.075
CHARGE=1
MSLEVEL=2
SOURCE_INSTRUMENT=Positive-Quattro_QQQ:10eV
FILENAME=hmdb_intermediate.mgf
SEQ=*..*
IONMODE=Positive
ORGANISM=HMDB
NAME=HMDB:HMDB00099-156 L-Cystathionine M+H
PI=HMDB
DATACOLLECTOR=HMDB
SMILES=N[C@@H](CCSC[C@H](N)C(O)=O)C(O)=O
INCHI=InChI=1S/C7H14N2O4S/c8-4(6(10)11)1-2-14-3-5(9)7(12)13/h4-5H,1-3,8-9H2,(H,10,11)(H,12,13)/t4-,5-/m0/s1
INCHIAUX=N/A
PUBMED=N/A
SUBMITUSER=mwang87
TAGS=
LIBRARYQUALITY=3
SPECTRUMID=CCMSLIB00000425030
SCANS=2
56.261	5.478
88.097	9.877
133.997	100.0
177.012	3.318
222.983	91.975
END IONS
BEGIN IONS
PEPMASS=307.978
CHARGE=1
MSLEVEL=2
SOURCE_INSTRUMENT=Positive-Quattro_QQQ:40eV
FILENAME=hmdb_intermediate.mgf
SEQ=*..*
IONMODE=Positive
ORGANISM=HMDB
NAME=HMDB:HMDB00021-38 Iodotyrosine M+H
PI=HMDB
DATACOLLECTOR=HMDB
SMILES=N[C@@H](CC1=CC=C(O)C(I)=C1)C(O)=O
INCHI=InChI=1S/C9H10INO3/c10-6-3-5(1-2-8(6)12)4-7(11)9(13)14/h1-3,7,12H,4,11H2,(H,13,14)/t7-/m0/s1
INCHIAUX=N/A
PUBMED=N/A
SUBMITUSER=mwang87
TAGS=
LIBRARYQUALITY=3
SPECTRUMID=CCMSLIB00000425031
SCANS=3
89.975	5.266
94.035	47.917
106.854	28.935
108.236	11.285
118.003	21.296
119.876	14.525
134.711	100.0
248.732	8.912
261.798	11.69
END IONS
BEGIN IONS
PEPMASS=271.17
CHARGE=1
MSLEVEL=2
SOURCE_INSTRUMENT=Positive-Quattro_QQQ:10eV
FILENAME=hmdb_intermediate.mgf
SEQ=*..*
IONMODE=Positive
ORGANISM=HMDB
NAME=HMDB:HMDB00145-218 Estrone M+H
PI=HMDB
DATACOLLECTOR=HMDB
SMILES=[H][C@@]12CCC(=O)[C@@]1(C)CC[C@]1([H])C3=C(CC[C@@]21[H])C=C(O)C=C3
INCHI=InChI=1S/C18H22O2/c1-18-9-8-14-13-5-3-12(19)10-11(13)2-4-15(14)16(18)6-7-17(18)20/h3,5,10,14-16,19H,2,4,6-9H2,1H3/t14-,15-,16+,18+/m1/s1
INCHIAUX=N/A
PUBMED=N/A
SUBMITUSER=mwang87
TAGS=
LIBRARYQUALITY=3
SPECTRUMID=CCMSLIB00000425032
SCANS=4
199.0	15.265
271.0	100.0
272.0	23.44
END IONS
BEGIN IONS
PEPMASS=343.124
CHARGE=1
MSLEVEL=2
SOURCE_INSTRUMENT=Positive-Quattro_QQQ:25eV
FILENAME=hmdb_intermediate.mgf
SEQ=*..*
IONMODE=Positive
ORGANISM=HMDB
NAME=HMDB:HMDB00258-449 Sucrose M+H
PI=HMDB
DATACOLLECTOR=HMDB
SMILES=OC[C@H]1O[C@@](CO)(O[C@H]2O[C@H](CO)[C@@H](O)[C@H](O)[C@H]2O)[C@@H](O)[C@@H]1O
INCHI=InChI=1S/C12H22O11/c13-1-4-6(16)8(18)9(19)11(21-4)23-12(3-15)10(20)7(17)5(2-14)22-12/h4-11,13-20H,1-3H2/t4-,5-,6-,7-,8+,9-,10+,11-,12+/m1/s1
INCHIAUX=N/A
PUBMED=N/A
SUBMITUSER=mwang87
TAGS=
LIBRARYQUALITY=3
SPECTRUMID=CCMSLIB00000425033
SCANS=5
55.239	6.379
69.118	11.724
73.123	5.172
85.059	100.0
97.026	19.138
99.025	6.983
108.994	5.302
114.982	5.129
126.974	55.172
144.97	31.552
162.881	13.103
END IONS
BEGIN IONS
PEPMASS=385.347
CHARGE=1
MSLEVEL=2
SOURCE_INSTRUMENT=Positive-Quattro_QQQ:25eV
FILENAME=hmdb_intermediate.mgf
SEQ=*..*
IONMODE=Positive
ORGANISM=HMDB
NAME=HMDB:HMDB00032-52 7-Dehydrocholesterol M+H
PI=HMDB
DATACOLLECTOR=HMDB
SMILES=[H][C@@]12CC[C@H]([C@H](C)CCCC(C)C)[C@@]1(C)CC[C@@]1([H])C2=CC=C2C[C@@H](O)CC[C@]12C
INCHI=InChI=1S/C27H44O/c1-18(2)7-6-8-19(3)23-11-12-24-22-10-9-20-17-21(28)13-15-26(20,4)25(22)14-16-27(23,24)5/h9-10,18-19,21,23-25,28H,6-8,11-17H2,1-5H3/t19-,21+,23-,24+,25+,26+,27-/m1/s1
INCHIAUX=N/A
PUBMED=N/A
SUBMITUSER=mwang87
TAGS=
LIBRARYQUALITY=3
SPECTRUMID=CCMSLIB00000425034
SCANS=6
43.315	18.02
55.297	21.827
57.193	45.685
69.167	70.558
71.228	62.437
81.111	83.756
83.101	63.959
85.037	38.579
93.281	26.904
95.201	70.558
97.106	38.579
99.081	17.893
105.068	27.284
107.083	40.102
109.136	56.853
110.869	25.127
119.285	25.761
121.033	43.655
122.954	32.995
131.261	19.543
132.947	35.533
135.008	31.091
142.691	21.32
145.095	36.041
146.953	42.132
148.851	26.904
157.174	40.102
158.173	22.589
159.094	58.376
160.211	23.223
161.179	54.315
163.264	25.888
169.01	22.843
170.939	38.071
172.821	47.716
175.124	30.838
176.756	22.589
182.901	22.462
185.072	35.025
187.18	36.041
188.937	24.492
195.309	23.604
196.41	20.685
197.409	26.777
198.768	57.868
199.65	28.68
201.102	32.995
203.109	20.051
209.27	21.32
211.246	34.518
212.027	18.02
212.855	56.853
213.628	20.685
214.932	32.995
217.048	17.64
218.774	19.67
223.077	19.67
225.154	17.513
226.021	17.893
226.934	51.777
228.957	24.619
231.354	22.97
237.11	34.518
239.015	22.97
241.1	28.299
254.22	22.462
255.048	45.178
325.076	19.797
339.315	19.162
349.47	22.081
367.233	62.944
367.999	17.893
385.161	100.0
386.021	32.995
END IONS
BEGIN IONS
PEPMASS=464.082
CHARGE=1
MSLEVEL=2
SOURCE_INSTRUMENT=Positive-Quattro_QQQ:10eV
FILENAME=hmdb_intermediate.mgf
SEQ=*..*
IONMODE=Positive
ORGANISM=HMDB
NAME=HMDB:HMDB00536-758 Adenylsuccinic acid M+H
PI=HMDB
DATACOLLECTOR=HMDB
SMILES=O[C@@H]1[C@@H](COP(O)(O)=O)O[C@H]([C@@H]1O)N1C=NC2=C1N=CN=C2NC(CC(O)=O)C(O)=O
INCHI=InChI=1S/C14H18N5O11P/c20-7(21)1-5(14(24)25)18-11-8-12(16-3-15-11)19(4-17-8)13-10(23)9(22)6(30-13)2-29-31(26,27)28/h3-6,9-10,13,22-23H,1-2H2,(H,20,21)(H,24,25)(H,15,16,18)(H2,26,27,28)/t5?,6-,9-,10-,13-/m1/s1
INCHIAUX=N/A
PUBMED=N/A
SUBMITUSER=mwang87
TAGS=
LIBRARYQUALITY=3
SPECTRUMID=CCMSLIB00000425035
SCANS=7
251.0	65.439
252.0	36.631
253.0	4.831
386.0	3.04
387.0	3.697
431.0	2.281
463.0	83.455
464.0	100.0
465.0	38.559
END IONS
BEGIN IONS
PEPMASS=129.019
CHARGE=1
MSLEVEL=2
SOURCE_INSTRUMENT=Negative-Quattro_QQQ:10eV
FILENAME=hmdb_intermediate.mgf
SEQ=*..*
IONMODE=Negative
ORGANISM=HMDB
NAME=HMDB:HMDB00620-837 Glutaconic acid M-H
PI=HMDB
DATACOLLECTOR=HMDB
SMILES=OC(=O)C\C=C\C(O)=O
INCHI=InChI=1S/C5H6O4/c6-4(7)2-1-3-5(8)9/h1-2H,3H2,(H,6,7)(H,8,9)/b2-1+
INCHIAUX=N/A
PUBMED=N/A
SUBMITUSER=mwang87
TAGS=
LIBRARYQUALITY=3
SPECTRUMID=CCMSLIB00000425036
SCANS=8
41.317	16.447
85.036	100.0
128.921	2.237
END IONS
BEGIN IONS
PEPMASS=91.0395
CHARGE=1
MSLEVEL=2
SOURCE_INSTRUMENT=Positive-Quattro_QQQ:25eV
FILENAME=hmdb_intermediate.mgf
SEQ=*..*
IONMODE=Positive
ORGANISM=HMDB
NAME=HMDB:HMDB00700-976 Hydroxypropionic acid M+H
PI=HMDB
DATACOLLECTOR=HMDB
SMILES=OCCC(O)=O
INCHI=InChI=1S/C3H6O3/c4-2-1-3(5)6/h4H,1-2H2,(H,5,6)
INCHIAUX=N/A
PUBMED=N/A
SUBMITUSER=mwang87
TAGS=
LIBRARYQUALITY=3
SPECTRUMID=CCMSLIB00000425037
SCANS=9
54.152	10.812
55.397	28.713
55.522	9.206
63.364	13.339
72.451	25.173
73.322	100.0
73.571	88.755
89.878	23.212
91.496	52.287
91.87	10.032
END IONS
BEGIN IONS
PEPMASS=260.186
CHARGE=1
MSLEVEL=2
SOURCE_INSTRUMENT=Positive-Quattro_QQQ:10eV
FILENAME=hmdb_intermediate.mgf
SEQ=*..*
IONMODE=Positive
ORGANISM=HMDB
NAME=HMDB:HMDB00705-984 Hexanoylcarnitine M+H
PI=HMDB
DATACOLLECTOR=HMDB
SMILES=CCCCCC(=O)OC(CC([O-])=O)C[N+](C)(C)C
INCHI=InChI=1S/C13H25NO4/c1-5-6-7-8-13(17)18-11(9-12(15)16)10-14(2,3)4/h11H,5-10H2,1-4H3
INCHIAUX=N/A
PUBMED=N/A
SUBMITUSER=mwang87
TAGS=
LIBRARYQUALITY=3
SPECTRUMID=CCMSLIB00000425038
SCANS=10
60.437	17.549
85.247	74.118
99.242	5.221
144.142	1.863
201.043	37.647
260.119	100.0
END IONS
